Version identifier: 22.1.0.0 | 2022-03-09 | 1a383f8ce
CPXPARAM_Threads                                 1
CPXPARAM_MIP_Strategy_VariableSelect             3
CPXPARAM_TimeLimit                               599.99564334299998
Tried aggregator 1 time.
MIP Presolve eliminated 376 rows and 1080 columns.
Reduced MIP has 2156 rows, 3240 columns, and 27194 nonzeros.
Reduced MIP has 3240 binaries, 0 generals, 0 SOSs, and 0 indicators.
Presolve time = 0.02 sec. (15.28 ticks)
Probing time = 0.00 sec. (2.84 ticks)
Tried aggregator 1 time.
Detecting symmetries...
Reduced MIP has 2156 rows, 3240 columns, and 27194 nonzeros.
Reduced MIP has 3240 binaries, 0 generals, 0 SOSs, and 0 indicators.
Presolve time = 0.02 sec. (16.85 ticks)
Probing time = 0.00 sec. (2.84 ticks)
Clique table members: 1434.
MIP emphasis: balance optimality and feasibility.
MIP search method: dynamic search.
Parallel mode: none, using 1 thread.
Root relaxation solution time = 0.02 sec. (21.71 ticks)

        Nodes                                         Cuts/
   Node  Left     Objective  IInf  Best Integer    Best Bound    ItCnt     Gap

      0     0        0.0000    78                      0.0000      495         
*     0+    0                            0.0000        0.0000             0.00%
      0     0        cutoff              0.0000        0.0000      495    0.00%
Elapsed time = 0.15 sec. (123.17 ticks, tree = 0.01 MB, solutions = 1)

Root node processing (before b&c):
  Real time             =    0.15 sec. (123.31 ticks)
Sequential b&c:
  Real time             =    0.00 sec. (0.00 ticks)
                          ------------
Total (root+branch&cut) =    0.15 sec. (123.31 ticks)
Primal:	360
Dual:	360
Status:	Optimal
Time:	0.179115
Sequence:
	9
	5
	9
	9
	5
	9
	9
	9
	9
	5
	9
	9
	4
	9
	5
	9
	5
	9
	9
	5
	9
	5
	9
	5
	9
	5
	9
	9
	5
	9
	9
	5
	9
	9
	9
	5
	9
	4
	9
	9
	9
	9
	5
	9
	9
	9
	9
	9
	9
	0
	5
	9
	4
	9
	9
	9
	9
	9
	9
	9
	9
	1
	9
	9
	9
	9
	9
	9
	9
	9
	9
	4
	5
	9
	9
	9
	5
	9
	9
	9
	9
	9
	9
	9
	9
	4
	5
	9
	9
	9
	5
	9
	9
	9
	9
	9
	9
	9
	9
	5
	9
	5
	0
	5
	4
	0
	4
	1
	4
	4
	3
	4
	4
	0
	9
	4
	5
	0
	4
	9
	0
	5
	4
	0
	5
	4
	0
	1
	4
	5
	9
	5
	0
	1
	4
	11
	2
	5
	4
	9
	5
	9
	5
	4
	1
	4
	1
	9
	5
	0
	4
	5
	0
	9
	5
	0
	3
	9
	4
	1
	9
	0
	5
	9
	4
	0
	9
	5
	0
	5
	9
	0
	4
	1
	0
	5
	4
	1
	4
	0
	4
	11
	9
	5
	0
	9
	1
	0
	5
	9
	5
	4
	0
	5
	9
	5
	4
	9
	5
	0
	4
	5
	0
	1
	9
	0
	4
	3
	4
	0
	4
	5
	0
	4
	5
	0
	9
	1
	0
	4
	4
	9
	5
	9
	5
	0
	5
	9
	4
	0
	5
	9
	9
	5
	9
	4
	4
	0
	4
	9
	4
	0
	1
	4
	0
	5
	4
	1
	4
	0
	5
	4
	0
	5
	9
	5
	4
	9
	0
	5
	9
	4
	9
	5
	9
	4
	9
	5
	9
	0
	4
	9
	0
	4
	5
	0
	5
	9
	5
	0
	11
	4
	9
	5
	0
	9
	1
	9
	4
	5
	0
	5
	9
	5
	0
	1
	9
	4
	5
	0
	1
	9
	5
	4
	9
	0
	5
	9
	9
	5
	0
	5
	4
	0
	10
	4
	5
	9
	4
	0
	9
	5
	4
	1
	0
	5
	9
	5
	4
	0
	5
	4
	0
	11
	4
	9
	0
	5
	4
	1
	0
	4
	5
	0
	5
	4
	0
	5
	9
	0
	5
	9
	1
	0
	5
	4
	0
	5
	9
	0
